2 1
3 2
4 3
5 4
6 5
7 6
8 7
9 8
10 9
11 10
12 11
13 12
14 13
15 14
16 15
17 16
18 1
18 17
19 1
19 2
19 18
20 1
20 2
20 3
20 19
21 2
21 3
21 4
21 20
22 3
22 4
22 5
22 21
23 4
23 5
23 6
23 22
24 5
24 6
24 7
24 23
25 6
25 7
25 8
25 24
26 7
26 8
26 9
26 25
27 8
27 9
27 10
27 26
28 9
28 10
28 11
28 27
29 10
29 11
29 12
29 28
30 11
30 12
30 13
30 29
31 12
31 13
31 14
31 30
32 13
32 14
32 15
32 31
33 14
33 15
33 16
33 32
34 15
34 16
34 17
34 33
35 16
35 17
35 18
35 34
36 1
36 17
36 18
36 19
36 35
37 1
37 2
37 18
37 19
37 20
37 36
38 1
38 2
38 3
38 19
38 20
38 21
38 37
39 2
39 3
39 4
39 20
39 21
39 22
39 38
40 3
40 4
40 5
40 21
40 22
40 23
40 39
41 4
41 5
41 6
41 22
41 23
41 24
41 40
42 5
42 6
42 7
42 23
42 24
42 25
42 41
43 6
43 7
43 8
43 24
43 25
43 26
43 42
44 7
44 8
44 9
44 25
44 26
44 27
44 43
45 8
45 9
45 10
45 26
45 27
45 28
45 44
46 9
46 10
46 11
46 27
46 28
46 29
46 45
47 10
47 11
47 12
47 28
47 29
47 30
47 46
48 11
48 12
48 13
48 29
48 30
48 31
48 47
49 12
49 13
49 14
49 30
49 31
49 32
49 48
50 13
50 14
50 15
50 31
50 32
50 33
50 49
51 14
51 15
51 16
51 32
51 33
51 34
51 50
52 15
52 16
52 17
52 33
52 34
52 35
52 51
53 16
53 17
53 18
53 34
53 35
53 36
53 52
54 1
54 17
54 18
54 19
54 35
54 36
54 37
54 53
55 1
55 2
55 18
55 19
55 20
55 36
55 37
55 38
55 54
56 1
56 2
56 3
56 19
56 20
56 21
56 37
56 38
56 39
56 55
57 2
57 3
57 4
57 20
57 21
57 22
57 38
57 39
57 40
57 56
58 3
58 4
58 5
58 21
58 22
58 23
58 39
58 40
58 41
58 57
59 4
59 5
59 6
59 22
59 23
59 24
59 40
59 41
59 42
59 58
60 5
60 6
60 7
60 23
60 24
60 25
60 41
60 42
60 43
60 59
61 6
61 7
61 8
61 24
61 25
61 26
61 42
61 43
61 44
61 60
62 7
62 8
62 9
62 25
62 26
62 27
62 43
62 44
62 45
62 61
63 8
63 9
63 10
63 26
63 27
63 28
63 44
63 45
63 46
63 62
64 9
64 10
64 11
64 27
64 28
64 29
64 45
64 46
64 47
64 63
65 10
65 11
65 12
65 28
65 29
65 30
65 46
65 47
65 48
65 64
66 11
66 12
66 13
66 29
66 30
66 31
66 47
66 48
66 49
66 65
67 12
67 13
67 14
67 30
67 31
67 32
67 48
67 49
67 50
67 66
68 13
68 14
68 15
68 31
68 32
68 33
68 49
68 50
68 51
68 67
69 14
69 15
69 16
69 32
69 33
69 34
69 50
69 51
69 52
69 68
70 15
70 16
70 17
70 33
70 34
70 35
70 51
70 52
70 53
70 69
71 16
71 17
71 18
71 34
71 35
71 36
71 52
71 53
71 54
71 70
72 1
72 17
72 18
72 19
72 35
72 36
72 37
72 53
72 54
72 55
72 71
73 1
73 2
73 18
73 19
73 20
73 36
73 37
73 38
73 54
73 55
73 56
73 72
74 1
74 2
74 3
74 19
74 20
74 21
74 37
74 38
74 39
74 55
74 56
74 57
74 73
75 2
75 3
75 4
75 20
75 21
75 22
75 38
75 39
75 40
75 56
75 57
75 58
75 74
76 3
76 4
76 5
76 21
76 22
76 23
76 39
76 40
76 41
76 57
76 58
76 59
76 75
77 4
77 5
77 6
77 22
77 23
77 24
77 40
77 41
77 42
77 58
77 59
77 60
77 76
78 5
78 6
78 7
78 23
78 24
78 25
78 41
78 42
78 43
78 59
78 60
78 61
78 77
79 6
79 7
79 8
79 24
79 25
79 26
79 42
79 43
79 44
79 60
79 61
79 62
79 78
80 7
80 8
80 9
80 25
80 26
80 27
80 43
80 44
80 45
80 61
80 62
80 63
80 79
81 8
81 9
81 10
81 26
81 27
81 28
81 44
81 45
81 46
81 62
81 63
81 64
81 80
82 9
82 10
82 11
82 27
82 28
82 29
82 45
82 46
82 47
82 63
82 64
82 65
82 81
83 10
83 11
83 12
83 28
83 29
83 30
83 46
83 47
83 48
83 64
83 65
83 66
83 82
84 11
84 12
84 13
84 29
84 30
84 31
84 47
84 48
84 49
84 65
84 66
84 67
84 83
85 12
85 13
85 14
85 30
85 31
85 32
85 48
85 49
85 50
85 66
85 67
85 68
85 84
86 13
86 14
86 15
86 31
86 32
86 33
86 49
86 50
86 51
86 67
86 68
86 69
86 85
87 14
87 15
87 16
87 32
87 33
87 34
87 50
87 51
87 52
87 68
87 69
87 70
87 86
88 15
88 16
88 17
88 33
88 34
88 35
88 51
88 52
88 53
88 69
88 70
88 71
88 87
89 16
89 17
89 18
89 34
89 35
89 36
89 52
89 53
89 54
89 70
89 71
89 72
89 88
90 1
90 17
90 18
90 19
90 35
90 36
90 37
90 53
90 54
90 55
90 71
90 72
90 73
90 89
91 1
91 2
91 18
91 19
91 20
91 36
91 37
91 38
91 54
91 55
91 56
91 72
91 73
91 74
91 90
92 1
92 2
92 3
92 19
92 20
92 21
92 37
92 38
92 39
92 55
92 56
92 57
92 73
92 74
92 75
92 91
93 2
93 3
93 4
93 20
93 21
93 22
93 38
93 39
93 40
93 56
93 57
93 58
93 74
93 75
93 76
93 92
94 3
94 4
94 5
94 21
94 22
94 23
94 39
94 40
94 41
94 57
94 58
94 59
94 75
94 76
94 77
94 93
95 4
95 5
95 6
95 22
95 23
95 24
95 40
95 41
95 42
95 58
95 59
95 60
95 76
95 77
95 78
95 94
96 5
96 6
96 7
96 23
96 24
96 25
96 41
96 42
96 43
96 59
96 60
96 61
96 77
96 78
96 79
96 95
97 6
97 7
97 8
97 24
97 25
97 26
97 42
97 43
97 44
97 60
97 61
97 62
97 78
97 79
97 80
97 96
98 7
98 8
98 9
98 25
98 26
98 27
98 43
98 44
98 45
98 61
98 62
98 63
98 79
98 80
98 81
98 97
99 8
99 9
99 10
99 26
99 27
99 28
99 44
99 45
99 46
99 62
99 63
99 64
99 80
99 81
99 82
99 98
100 9
100 10
100 11
100 27
100 28
100 29
100 45
100 46
100 47
100 63
100 64
100 65
100 81
100 82
100 83
100 99
101 10
101 11
101 12
101 28
101 29
101 30
101 46
101 47
101 48
101 64
101 65
101 66
101 82
101 83
101 84
101 100
102 11
102 12
102 13
102 29
102 30
102 31
102 47
102 48
102 49
102 65
102 66
102 67
102 83
102 84
102 85
102 101
103 12
103 13
103 14
103 30
103 31
103 32
103 48
103 49
103 50
103 66
103 67
103 68
103 84
103 85
103 86
103 102
104 13
104 14
104 15
104 31
104 32
104 33
104 49
104 50
104 51
104 67
104 68
104 69
104 85
104 86
104 87
104 103
105 14
105 15
105 16
105 32
105 33
105 34
105 50
105 51
105 52
105 68
105 69
105 70
105 86
105 87
105 88
105 104
106 15
106 16
106 17
106 33
106 34
106 35
106 51
106 52
106 53
106 69
106 70
106 71
106 87
106 88
106 89
106 105
107 16
107 17
107 18
107 34
107 35
107 36
107 52
107 53
107 54
107 70
107 71
107 72
107 88
107 89
107 90
107 106
108 1
108 17
108 18
108 19
108 35
108 36
108 37
108 53
108 54
108 55
108 71
108 72
108 73
108 89
108 90
108 91
108 107
109 1
109 2
109 18
109 19
109 20
109 36
109 37
109 38
109 54
109 55
109 56
109 72
109 73
109 74
109 90
109 91
109 92
109 108
110 1
110 2
110 3
110 19
110 20
110 21
110 37
110 38
110 39
110 55
110 56
110 57
110 73
110 74
110 75
110 91
110 92
110 93
110 109
111 2
111 3
111 4
111 20
111 21
111 22
111 38
111 39
111 40
111 56
111 57
111 58
111 74
111 75
111 76
111 92
111 93
111 94
111 110
112 3
112 4
112 5
112 21
112 22
112 23
112 39
112 40
112 41
112 57
112 58
112 59
112 75
112 76
112 77
112 93
112 94
112 95
112 111
113 4
113 5
113 6
113 22
113 23
113 24
113 40
113 41
113 42
113 58
113 59
113 60
113 76
113 77
113 78
113 94
113 95
113 96
113 112
114 5
114 6
114 7
114 23
114 24
114 25
114 41
114 42
114 43
114 59
114 60
114 61
114 77
114 78
114 79
114 95
114 96
114 97
114 113
115 6
115 7
115 8
115 24
115 25
115 26
115 42
115 43
115 44
115 60
115 61
115 62
115 78
115 79
115 80
115 96
115 97
115 98
115 114
116 7
116 8
116 9
116 25
116 26
116 27
116 43
116 44
116 45
116 61
116 62
116 63
116 79
116 80
116 81
116 97
116 98
116 99
116 115
117 8
117 9
117 10
117 26
117 27
117 28
117 44
117 45
117 46
117 62
117 63
117 64
117 80
117 81
117 82
117 98
117 99
117 100
117 116
118 9
118 10
118 11
118 27
118 28
118 29
118 45
118 46
118 47
118 63
118 64
118 65
118 81
118 82
118 83
118 99
118 100
118 101
118 117
119 10
119 11
119 12
119 28
119 29
119 30
119 46
119 47
119 48
119 64
119 65
119 66
119 82
119 83
119 84
119 100
119 101
119 102
119 118
120 11
120 12
120 13
120 29
120 30
120 31
120 47
120 48
120 49
120 65
120 66
120 67
120 83
120 84
120 85
120 101
120 102
120 103
120 119
121 12
121 13
121 14
121 30
121 31
121 32
121 48
121 49
121 50
121 66
121 67
121 68
121 84
121 85
121 86
121 102
121 103
121 104
121 120
122 13
122 14
122 15
122 31
122 32
122 33
122 49
122 50
122 51
122 67
122 68
122 69
122 85
122 86
122 87
122 103
122 104
122 105
122 121
123 14
123 15
123 16
123 32
123 33
123 34
123 50
123 51
123 52
123 68
123 69
123 70
123 86
123 87
123 88
123 104
123 105
123 106
123 122
124 15
124 16
124 17
124 33
124 34
124 35
124 51
124 52
124 53
124 69
124 70
124 71
124 87
124 88
124 89
124 105
124 106
124 107
124 123
125 16
125 17
125 18
125 34
125 35
125 36
125 52
125 53
125 54
125 70
125 71
125 72
125 88
125 89
125 90
125 106
125 107
125 108
125 124
126 1
126 17
126 18
126 19
126 35
126 36
126 37
126 53
126 54
126 55
126 71
126 72
126 73
126 89
126 90
126 91
126 107
126 108
126 109
126 125
127 1
127 2
127 18
127 19
127 20
127 36
127 37
127 38
127 54
127 55
127 56
127 72
127 73
127 74
127 90
127 91
127 92
127 108
127 109
127 110
127 126
128 1
128 2
128 3
128 19
128 20
128 21
128 37
128 38
128 39
128 55
128 56
128 57
128 73
128 74
128 75
128 91
128 92
128 93
128 109
128 110
128 111
128 127
129 2
129 3
129 4
129 20
129 21
129 22
129 38
129 39
129 40
129 56
129 57
129 58
129 74
129 75
129 76
129 92
129 93
129 94
129 110
129 111
129 112
129 128
130 3
130 4
130 5
130 21
130 22
130 23
130 39
130 40
130 41
130 57
130 58
130 59
130 75
130 76
130 77
130 93
130 94
130 95
130 111
130 112
130 113
130 129
131 4
131 5
131 6
131 22
131 23
131 24
131 40
131 41
131 42
131 58
131 59
131 60
131 76
131 77
131 78
131 94
131 95
131 96
131 112
131 113
131 114
131 130
132 5
132 6
132 7
132 23
132 24
132 25
132 41
132 42
132 43
132 59
132 60
132 61
132 77
132 78
132 79
132 95
132 96
132 97
132 113
132 114
132 115
132 131
133 6
133 7
133 8
133 24
133 25
133 26
133 42
133 43
133 44
133 60
133 61
133 62
133 78
133 79
133 80
133 96
133 97
133 98
133 114
133 115
133 116
133 132
134 7
134 8
134 9
134 25
134 26
134 27
134 43
134 44
134 45
134 61
134 62
134 63
134 79
134 80
134 81
134 97
134 98
134 99
134 115
134 116
134 117
134 133
135 8
135 9
135 10
135 26
135 27
135 28
135 44
135 45
135 46
135 62
135 63
135 64
135 80
135 81
135 82
135 98
135 99
135 100
135 116
135 117
135 118
135 134
136 9
136 10
136 11
136 27
136 28
136 29
136 45
136 46
136 47
136 63
136 64
136 65
136 81
136 82
136 83
136 99
136 100
136 101
136 117
136 118
136 119
136 135
137 10
137 11
137 12
137 28
137 29
137 30
137 46
137 47
137 48
137 64
137 65
137 66
137 82
137 83
137 84
137 100
137 101
137 102
137 118
137 119
137 120
137 136
138 11
138 12
138 13
138 29
138 30
138 31
138 47
138 48
138 49
138 65
138 66
138 67
138 83
138 84
138 85
138 101
138 102
138 103
138 119
138 120
138 121
138 137
139 12
139 13
139 14
139 30
139 31
139 32
139 48
139 49
139 50
139 66
139 67
139 68
139 84
139 85
139 86
139 102
139 103
139 104
139 120
139 121
139 122
139 138
140 13
140 14
140 15
140 31
140 32
140 33
140 49
140 50
140 51
140 67
140 68
140 69
140 85
140 86
140 87
140 103
140 104
140 105
140 121
140 122
140 123
140 139
141 14
141 15
141 16
141 32
141 33
141 34
141 50
141 51
141 52
141 68
141 69
141 70
141 86
141 87
141 88
141 104
141 105
141 106
141 122
141 123
141 124
141 140
142 15
142 16
142 17
142 33
142 34
142 35
142 51
142 52
142 53
142 69
142 70
142 71
142 87
142 88
142 89
142 105
142 106
142 107
142 123
142 124
142 125
142 141
143 16
143 17
143 18
143 34
143 35
143 36
143 52
143 53
143 54
143 70
143 71
143 72
143 88
143 89
143 90
143 106
143 107
143 108
143 124
143 125
143 126
143 142
144 1
144 17
144 18
144 19
144 35
144 36
144 37
144 53
144 54
144 55
144 71
144 72
144 73
144 89
144 90
144 91
144 107
144 108
144 109
144 125
144 126
144 127
144 143
145 1
145 2
145 18
145 19
145 20
145 36
145 37
145 38
145 54
145 55
145 56
145 72
145 73
145 74
145 90
145 91
145 92
145 108
145 109
145 110
145 126
145 127
145 128
145 144
146 1
146 2
146 3
146 19
146 20
146 21
146 37
146 38
146 39
146 55
146 56
146 57
146 73
146 74
146 75
146 91
146 92
146 93
146 109
146 110
146 111
146 127
146 128
146 129
146 145
147 2
147 3
147 4
147 20
147 21
147 22
147 38
147 39
147 40
147 56
147 57
147 58
147 74
147 75
147 76
147 92
147 93
147 94
147 110
147 111
147 112
147 128
147 129
147 130
147 146
148 3
148 4
148 5
148 21
148 22
148 23
148 39
148 40
148 41
148 57
148 58
148 59
148 75
148 76
148 77
148 93
148 94
148 95
148 111
148 112
148 113
148 129
148 130
148 131
148 147
149 4
149 5
149 6
149 22
149 23
149 24
149 40
149 41
149 42
149 58
149 59
149 60
149 76
149 77
149 78
149 94
149 95
149 96
149 112
149 113
149 114
149 130
149 131
149 132
149 148
150 5
150 6
150 7
150 23
150 24
150 25
150 41
150 42
150 43
150 59
150 60
150 61
150 77
150 78
150 79
150 95
150 96
150 97
150 113
150 114
150 115
150 131
150 132
150 133
150 149
151 6
151 7
151 8
151 24
151 25
151 26
151 42
151 43
151 44
151 60
151 61
151 62
151 78
151 79
151 80
151 96
151 97
151 98
151 114
151 115
151 116
151 132
151 133
151 134
151 150
152 7
152 8
152 9
152 25
152 26
152 27
152 43
152 44
152 45
152 61
152 62
152 63
152 79
152 80
152 81
152 97
152 98
152 99
152 115
152 116
152 117
152 133
152 134
152 135
152 151
153 8
153 9
153 10
153 26
153 27
153 28
153 44
153 45
153 46
153 62
153 63
153 64
153 80
153 81
153 82
153 98
153 99
153 100
153 116
153 117
153 118
153 134
153 135
153 136
153 152
154 9
154 10
154 11
154 27
154 28
154 29
154 45
154 46
154 47
154 63
154 64
154 65
154 81
154 82
154 83
154 99
154 100
154 101
154 117
154 118
154 119
154 135
154 136
154 137
154 153
155 10
155 11
155 12
155 28
155 29
155 30
155 46
155 47
155 48
155 64
155 65
155 66
155 82
155 83
155 84
155 100
155 101
155 102
155 118
155 119
155 120
155 136
155 137
155 138
155 154
156 11
156 12
156 13
156 29
156 30
156 31
156 47
156 48
156 49
156 65
156 66
156 67
156 83
156 84
156 85
156 101
156 102
156 103
156 119
156 120
156 121
156 137
156 138
156 139
156 155
157 12
157 13
157 14
157 30
157 31
157 32
157 48
157 49
157 50
157 66
157 67
157 68
157 84
157 85
157 86
157 102
157 103
157 104
157 120
157 121
157 122
157 138
157 139
157 140
157 156
158 13
158 14
158 15
158 31
158 32
158 33
158 49
158 50
158 51
158 67
158 68
158 69
158 85
158 86
158 87
158 103
158 104
158 105
158 121
158 122
158 123
158 139
158 140
158 141
158 157
159 14
159 15
159 16
159 32
159 33
159 34
159 50
159 51
159 52
159 68
159 69
159 70
159 86
159 87
159 88
159 104
159 105
159 106
159 122
159 123
159 124
159 140
159 141
159 142
159 158
160 15
160 16
160 17
160 33
160 34
160 35
160 51
160 52
160 53
160 69
160 70
160 71
160 87
160 88
160 89
160 105
160 106
160 107
160 123
160 124
160 125
160 141
160 142
160 143
160 159
161 16
161 17
161 18
161 34
161 35
161 36
161 52
161 53
161 54
161 70
161 71
161 72
161 88
161 89
161 90
161 106
161 107
161 108
161 124
161 125
161 126
161 142
161 143
161 144
161 160
162 1
162 17
162 18
162 19
162 35
162 36
162 37
162 53
162 54
162 55
162 71
162 72
162 73
162 89
162 90
162 91
162 107
162 108
162 109
162 125
162 126
162 127
162 143
162 144
162 145
162 161
163 1
163 2
163 18
163 19
163 20
163 36
163 37
163 38
163 54
163 55
163 56
163 72
163 73
163 74
163 90
163 91
163 92
163 108
163 109
163 110
163 126
163 127
163 128
163 144
163 145
163 146
163 162
164 1
164 2
164 3
164 19
164 20
164 21
164 37
164 38
164 39
164 55
164 56
164 57
164 73
164 74
164 75
164 91
164 92
164 93
164 109
164 110
164 111
164 127
164 128
164 129
164 145
164 146
164 147
164 163
165 2
165 3
165 4
165 20
165 21
165 22
165 38
165 39
165 40
165 56
165 57
165 58
165 74
165 75
165 76
165 92
165 93
165 94
165 110
165 111
165 112
165 128
165 129
165 130
165 146
165 147
165 148
165 164
166 3
166 4
166 5
166 21
166 22
166 23
166 39
166 40
166 41
166 57
166 58
166 59
166 75
166 76
166 77
166 93
166 94
166 95
166 111
166 112
166 113
166 129
166 130
166 131
166 147
166 148
166 149
166 165
167 4
167 5
167 6
167 22
167 23
167 24
167 40
167 41
167 42
167 58
167 59
167 60
167 76
167 77
167 78
167 94
167 95
167 96
167 112
167 113
167 114
167 130
167 131
167 132
167 148
167 149
167 150
167 166
168 5
168 6
168 7
168 23
168 24
168 25
168 41
168 42
168 43
168 59
168 60
168 61
168 77
168 78
168 79
168 95
168 96
168 97
168 113
168 114
168 115
168 131
168 132
168 133
168 149
168 150
168 151
168 167
169 6
169 7
169 8
169 24
169 25
169 26
169 42
169 43
169 44
169 60
169 61
169 62
169 78
169 79
169 80
169 96
169 97
169 98
169 114
169 115
169 116
169 132
169 133
169 134
169 150
169 151
169 152
169 168
170 7
170 8
170 9
170 25
170 26
170 27
170 43
170 44
170 45
170 61
170 62
170 63
170 79
170 80
170 81
170 97
170 98
170 99
170 115
170 116
170 117
170 133
170 134
170 135
170 151
170 152
170 153
170 169
171 8
171 9
171 10
171 26
171 27
171 28
171 44
171 45
171 46
171 62
171 63
171 64
171 80
171 81
171 82
171 98
171 99
171 100
171 116
171 117
171 118
171 134
171 135
171 136
171 152
171 153
171 154
171 170
172 9
172 10
172 11
172 27
172 28
172 29
172 45
172 46
172 47
172 63
172 64
172 65
172 81
172 82
172 83
172 99
172 100
172 101
172 117
172 118
172 119
172 135
172 136
172 137
172 153
172 154
172 155
172 171
173 10
173 11
173 12
173 28
173 29
173 30
173 46
173 47
173 48
173 64
173 65
173 66
173 82
173 83
173 84
173 100
173 101
173 102
173 118
173 119
173 120
173 136
173 137
173 138
173 154
173 155
173 156
173 172
174 11
174 12
174 13
174 29
174 30
174 31
174 47
174 48
174 49
174 65
174 66
174 67
174 83
174 84
174 85
174 101
174 102
174 103
174 119
174 120
174 121
174 137
174 138
174 139
174 155
174 156
174 157
174 173
175 12
175 13
175 14
175 30
175 31
175 32
175 48
175 49
175 50
175 66
175 67
175 68
175 84
175 85
175 86
175 102
175 103
175 104
175 120
175 121
175 122
175 138
175 139
175 140
175 156
175 157
175 158
175 174
176 13
176 14
176 15
176 31
176 32
176 33
176 49
176 50
176 51
176 67
176 68
176 69
176 85
176 86
176 87
176 103
176 104
176 105
176 121
176 122
176 123
176 139
176 140
176 141
176 157
176 158
176 159
176 175
177 14
177 15
177 16
177 32
177 33
177 34
177 50
177 51
177 52
177 68
177 69
177 70
177 86
177 87
177 88
177 104
177 105
177 106
177 122
177 123
177 124
177 140
177 141
177 142
177 158
177 159
177 160
177 176
178 15
178 16
178 17
178 33
178 34
178 35
178 51
178 52
178 53
178 69
178 70
178 71
178 87
178 88
178 89
178 105
178 106
178 107
178 123
178 124
178 125
178 141
178 142
178 143
178 159
178 160
178 161
178 177
179 16
179 17
179 18
179 34
179 35
179 36
179 52
179 53
179 54
179 70
179 71
179 72
179 88
179 89
179 90
179 106
179 107
179 108
179 124
179 125
179 126
179 142
179 143
179 144
179 160
179 161
179 162
179 178
180 1
180 17
180 18
180 19
180 35
180 36
180 37
180 53
180 54
180 55
180 71
180 72
180 73
180 89
180 90
180 91
180 107
180 108
180 109
180 125
180 126
180 127
180 143
180 144
180 145
180 161
180 162
180 163
180 179
181 1
181 2
181 18
181 19
181 20
181 36
181 37
181 38
181 54
181 55
181 56
181 72
181 73
181 74
181 90
181 91
181 92
181 108
181 109
181 110
181 126
181 127
181 128
181 144
181 145
181 146
181 162
181 163
181 164
181 180
182 1
182 2
182 3
182 19
182 20
182 21
182 37
182 38
182 39
182 55
182 56
182 57
182 73
182 74
182 75
182 91
182 92
182 93
182 109
182 110
182 111
182 127
182 128
182 129
182 145
182 146
182 147
182 163
182 164
182 165
182 181
183 2
183 3
183 4
183 20
183 21
183 22
183 38
183 39
183 40
183 56
183 57
183 58
183 74
183 75
183 76
183 92
183 93
183 94
183 110
183 111
183 112
183 128
183 129
183 130
183 146
183 147
183 148
183 164
183 165
183 166
183 182
184 3
184 4
184 5
184 21
184 22
184 23
184 39
184 40
184 41
184 57
184 58
184 59
184 75
184 76
184 77
184 93
184 94
184 95
184 111
184 112
184 113
184 129
184 130
184 131
184 147
184 148
184 149
184 165
184 166
184 167
184 183
185 4
185 5
185 6
185 22
185 23
185 24
185 40
185 41
185 42
185 58
185 59
185 60
185 76
185 77
185 78
185 94
185 95
185 96
185 112
185 113
185 114
185 130
185 131
185 132
185 148
185 149
185 150
185 166
185 167
185 168
185 184
186 5
186 6
186 7
186 23
186 24
186 25
186 41
186 42
186 43
186 59
186 60
186 61
186 77
186 78
186 79
186 95
186 96
186 97
186 113
186 114
186 115
186 131
186 132
186 133
186 149
186 150
186 151
186 167
186 168
186 169
186 185
187 6
187 7
187 8
187 24
187 25
187 26
187 42
187 43
187 44
187 60
187 61
187 62
187 78
187 79
187 80
187 96
187 97
187 98
187 114
187 115
187 116
187 132
187 133
187 134
187 150
187 151
187 152
187 168
187 169
187 170
187 186
188 7
188 8
188 9
188 25
188 26
188 27
188 43
188 44
188 45
188 61
188 62
188 63
188 79
188 80
188 81
188 97
188 98
188 99
188 115
188 116
188 117
188 133
188 134
188 135
188 151
188 152
188 153
188 169
188 170
188 171
188 187
189 8
189 9
189 10
189 26
189 27
189 28
189 44
189 45
189 46
189 62
189 63
189 64
189 80
189 81
189 82
189 98
189 99
189 100
189 116
189 117
189 118
189 134
189 135
189 136
189 152
189 153
189 154
189 170
189 171
189 172
189 188
190 9
190 10
190 11
190 27
190 28
190 29
190 45
190 46
190 47
190 63
190 64
190 65
190 81
190 82
190 83
190 99
190 100
190 101
190 117
190 118
190 119
190 135
190 136
190 137
190 153
190 154
190 155
190 171
190 172
190 173
190 189
191 10
191 11
191 12
191 28
191 29
191 30
191 46
191 47
191 48
191 64
191 65
191 66
191 82
191 83
191 84
191 100
191 101
191 102
191 118
191 119
191 120
191 136
191 137
191 138
191 154
191 155
191 156
191 172
191 173
191 174
191 190
192 11
192 12
192 13
192 29
192 30
192 31
192 47
192 48
192 49
192 65
192 66
192 67
192 83
192 84
192 85
192 101
192 102
192 103
192 119
192 120
192 121
192 137
192 138
192 139
192 155
192 156
192 157
192 173
192 174
192 175
192 191
193 12
193 13
193 14
193 30
193 31
193 32
193 48
193 49
193 50
193 66
193 67
193 68
193 84
193 85
193 86
193 102
193 103
193 104
193 120
193 121
193 122
193 138
193 139
193 140
193 156
193 157
193 158
193 174
193 175
193 176
193 192
194 13
194 14
194 15
194 31
194 32
194 33
194 49
194 50
194 51
194 67
194 68
194 69
194 85
194 86
194 87
194 103
194 104
194 105
194 121
194 122
194 123
194 139
194 140
194 141
194 157
194 158
194 159
194 175
194 176
194 177
194 193
195 14
195 15
195 16
195 32
195 33
195 34
195 50
195 51
195 52
195 68
195 69
195 70
195 86
195 87
195 88
195 104
195 105
195 106
195 122
195 123
195 124
195 140
195 141
195 142
195 158
195 159
195 160
195 176
195 177
195 178
195 194
196 15
196 16
196 17
196 33
196 34
196 35
196 51
196 52
196 53
196 69
196 70
196 71
196 87
196 88
196 89
196 105
196 106
196 107
196 123
196 124
196 125
196 141
196 142
196 143
196 159
196 160
196 161
196 177
196 178
196 179
196 195
197 16
197 17
197 18
197 34
197 35
197 36
197 52
197 53
197 54
197 70
197 71
197 72
197 88
197 89
197 90
197 106
197 107
197 108
197 124
197 125
197 126
197 142
197 143
197 144
197 160
197 161
197 162
197 178
197 179
197 180
197 196
198 1
198 17
198 18
198 19
198 35
198 36
198 37
198 53
198 54
198 55
198 71
198 72
198 73
198 89
198 90
198 91
198 107
198 108
198 109
198 125
198 126
198 127
198 143
198 144
198 145
198 161
198 162
198 163
198 179
198 180
198 181
198 197
199 1
199 2
199 18
199 19
199 20
199 36
199 37
199 38
199 54
199 55
199 56
199 72
199 73
199 74
199 90
199 91
199 92
199 108
199 109
199 110
199 126
199 127
199 128
199 144
199 145
199 146
199 162
199 163
199 164
199 180
199 181
199 182
199 198
200 1
200 2
200 3
200 19
200 20
200 21
200 37
200 38
200 39
200 55
200 56
200 57
200 73
200 74
200 75
200 91
200 92
200 93
200 109
200 110
200 111
200 127
200 128
200 129
200 145
200 146
200 147
200 163
200 164
200 165
200 181
200 182
200 183
200 199
